projet_m2_wvcp/projet_m2_wvcp/original_wvcp_dzn/p19.clq.dzn
cliques=[{0,10,13,16,20,33,27},{0,1,2},{0,2,1},{3,4,5,6,7,9,8},{3,4,5,6,7,9,8},{3,4,5,6,7,9,8},{3,4,5,6,7,9,8},{3,4,5,6,7,9,8},{3,4,5,6,7,9,8},{3,4,5,6,7,9,8},{0,10,13,16,20,33,27},{10,11,12},{10,11,12},{0,10,13,16,20,33,27},{13,15,14},{13,15,14},{0,10,13,16,20,33,27},{16,18,17},{16,18,17},{3,19,26},{0,10,13,16,20,33,27},{4,21,28},{5,29,22},{6,30,23},{20,19,24,21,22,23,25},{20,19,24,21,22,23,25},{3,26,19},{0,10,13,16,20,33,27},{4,21,28},{5,29,22},{6,30,23},{7,1,31,11,14,17,34},{27,32,26,29,31,30,28},{0,10,13,16,20,33,27},{7,1,31,11,14,17,34},{8,35,2,15,24,18,12}];
nr_cliques=36;
