projet_m2_wvcp/projet_m2_wvcp/original_wvcp_dzn/p19.dzn
name="p19";
nr_vertices=36;
nr_edges=156;
neighborhoods=[{1,2,10,13,16,20,27,33},{0,2,7,11,14,17,31,34},{0,1,8,12,15,18,24,35},{4,5,6,7,8,9,19,26},{3,5,6,7,8,9,21,28},{3,4,6,7,8,9,22,29},{3,4,5,7,8,9,23,30},{1,3,4,5,6,8,9,11,14,17,31,34},{2,3,4,5,6,7,9,12,15,18,24,35},{3,4,5,6,7,8,25,32},{0,11,12,13,16,20,27,33},{1,7,10,12,14,17,31,34},{2,8,10,11,15,18,24,35},{0,10,14,15,16,20,27,33},{1,7,11,13,15,17,31,34},{2,8,12,13,14,18,24,35},{0,10,13,17,18,20,27,33},{1,7,11,14,16,18,31,34},{2,8,12,15,16,17,24,35},{3,20,21,22,23,24,25,26},{0,10,13,16,19,21,22,23,24,25,27,33},{4,19,20,22,23,24,25,28},{5,19,20,21,23,24,25,29},{6,19,20,21,22,24,25,30},{2,8,12,15,18,19,20,21,22,23,25,35},{9,19,20,21,22,23,24,32},{3,19,27,28,29,30,31,32},{0,10,13,16,20,26,28,29,30,31,32,33},{4,21,26,27,29,30,31,32},{5,22,26,27,28,30,31,32},{6,23,26,27,28,29,31,32},{1,7,11,14,17,26,27,28,29,30,32,34},{9,25,26,27,28,29,30,31},{0,10,13,16,20,27,34,35},{1,7,11,14,17,31,33,35},{2,8,12,15,18,24,33,34}];
weights=[1150,80,80,1150,900,650,400,280,150,180,900,60,30,650,40,70,400,30,50,80,280,60,40,30,60,20,80,150,30,70,50,60,100,180,20,100];
